%nprocshared=12
%chk=checkpoint.chk
%mem=12GB
# sp B3LYP/Def2TZVP NoSymm
 
ts_initalOptXYZ_aligned_AlignedSp
 
0 1
7 0.546626 -0.000000 0.066636 
6 -1.240726 0.000009 -0.944094 
8 0.109010 -0.000005 1.334724 
6 -2.119820 -0.000001 0.151407 
1 -1.117306 -0.000006 1.072844 
1 -2.673371 -0.910962 0.356876 
1 -2.673374 0.910955 0.356890 
1 -1.061794 0.908861 -1.505931 
1 -1.061792 -0.908830 -1.505950 
6 1.277275 1.225415 -0.260596 
1 2.207380 1.280165 0.312036 
1 0.651810 2.076223 -0.001687 
1 1.503426 1.244676 -1.328148 
6 1.277267 -1.225417 -0.260607 
1 0.651797 -2.076222 -0.001703 
1 2.207372 -1.280177 0.312024 
1 1.503416 -1.244673 -1.328160 
 
