%nprocshared=12
%chk=checkpoint.chk
%mem=12GB
# Opt=(TS, CalcFC, noeigentest) B3LYP/Def2TZVP freq=noraman pop=none
 
ts_initalOpt
 
0 1
6 1.780179 0.477309 1.424031 
6 0.709499 -0.423621 1.447011 
6 2.080769 -0.345311 -0.850849 
6 2.470689 0.576979 0.246801 
6 -0.332501 0.531590 -0.476739 
6 0.690059 0.090549 -1.469579 
1 0.304469 -0.742261 -2.054259 
1 0.890699 0.939919 -2.124279 
1 2.815529 -0.333891 -1.655409 
1 -0.055621 -0.311201 2.206761 
6 1.935718 -1.767001 -0.275069 
1 1.679308 -2.462491 -1.075429 
1 2.892478 -2.087931 0.141291 
6 0.845628 -1.775641 0.808271 
1 -0.111682 -2.113441 0.408751 
1 1.097878 -2.481971 1.607881 
1 3.247689 1.315389 0.107821 
1 1.884969 1.233559 2.190371 
7 -0.259381 1.803229 0.014861 
8 0.814669 2.378489 -0.272349 
6 -1.633241 -0.163910 -0.392369 
8 -1.859141 -1.222110 -0.945789 
8 -2.540461 0.470480 0.369081 
6 -3.829241 -0.152280 0.453301 
1 -4.424441 0.501361 1.085201 
1 -4.279441 -0.241140 -0.535109 
1 -3.752051 -1.145360 0.896001 
 
