%nprocshared=12
%chk=checkpoint.chk
%mem=12GB
# Opt=(TS, CalcFC, noeigentest) B3LYP/Def2TZVP freq=noraman pop=none
 
ts_initalOpt
 
0 1
6 -1.080256 -0.256222 0.699459 
6 -0.031193 1.608388 1.151031 
6 1.260323 1.307257 -0.695841 
6 1.260323 1.307257 0.695841 
1 2.083760 0.997095 -1.322348 
1 2.083760 0.997095 1.322348 
6 -0.751641 2.260981 0.000000 
1 -1.835463 2.174682 0.000000 
1 -0.498847 3.330134 0.000000 
1 -0.281589 1.778199 -2.188392 
1 -0.281589 1.778199 2.188392 
8 0.154454 -1.683084 -2.230963 
8 0.154454 -1.683084 2.230963 
6 -0.114512 -1.281375 -1.140209 
6 -0.114512 -1.281375 1.140209 
1 -1.913033 -0.008679 -1.337815 
6 -0.031193 1.608388 -1.151031 
6 -1.080256 -0.256222 -0.699459 
1 -1.913033 -0.008679 1.337815 
8 0.522783 -1.776397 -0.000000 
 
