%nprocshared=12
%chk=checkpoint.chk
%mem=12GB
# Opt=(TS, CalcFC, noeigentest, Z-matrix, MaxStep=10) Field=read NoSymm B3LYP/Def2TZVP freq=noraman pop=none
 
ts_zmat_initalOpt
 
0 1
 C
 C,1,R2
 C,1,R3,2,A3
 H,1,R4,2,A4,3,D4,0
 H,1,R5,2,A5,3,D5,0
 H,3,R6,1,A6,2,D6,0
 H,3,R7,1,A7,6,D7,0
 C,2,R8,1,A8,3,D8,0
 H,2,R9,1,A9,8,D9,0
 C,8,R10,2,A10,1,D10,0
 H,8,R11,2,A11,10,D11,0
 H,10,R12,8,A12,2,D12,0
 H,10,R13,8,A13,12,D13,0
      Variables:
 R2=1.50546643
 R3=1.45932768
 R4=1.09294735
 R5=1.09595197
 R6=1.07871289
 R7=1.0804694
 R8=1.38897687
 R9=1.08702961
 R10=1.36996954
 R11=1.09297091
 R12=1.07696815
 R13=1.08422353
 A3=103.438631
 A4=112.24803153
 A5=107.97209234
 A6=122.85703423
 A7=119.03921765
 A8=123.46834403
 A9=117.59259021
 A10=127.86756477
 A11=114.7660538
 A12=120.90318981
 A13=121.23389339
 D4=-122.96215582
 D5=118.46512589
 D6=-112.52616816
 D7=178.67074378
 D8=49.95401541
 D9=178.27530024
 D10=-30.67262251
 D11=177.67396056
 D12=-34.33522213
 D13=-169.52735709
 
0.00195329637876 0.00156008691555 2.76056632233e-05 0.0 0.0 0.0 0.0 0.0 0.0
0.0 0.0 0.0 0.0 0.0 0.0 0.0 0.0 0.0 0.0
0.0 0.0 0.0 0.0 0.0 0.0 0.0 0.0 0.0 0.0 0.0 0.0 0.0 0.0 0.0


