%nprocshared=12
%chk=checkpoint.chk
%mem=12GB
# Opt=(TS, CalcFC, noeigentest) B3LYP/Def2TZVP freq=noraman pop=none
 
ts_initalOpt
 
0 1
6 -1.525842 -0.769594 -0.556985 
6 -1.525834 0.769603 -0.556987 
6 -0.654722 1.092996 0.650832 
6 -0.654729 -1.092992 0.650833 
6 0.686313 -1.455203 0.566786 
6 1.495902 -1.220776 -0.521834 
6 0.686322 1.455198 0.566787 
6 1.495911 1.220767 -0.521832 
1 1.084305 1.117496 -1.514941 
1 2.550174 1.457999 -0.475884 
1 1.172561 1.723792 1.500563 
1 -1.175151 1.338612 1.569265 
1 -2.526189 1.189429 -0.436131 
1 -1.115630 1.192976 -1.475672 
1 -2.526200 -1.189410 -0.436125 
1 -1.115644 -1.192973 -1.475670 
1 -1.175159 -1.338605 1.569267 
1 1.172551 -1.723801 1.500561 
1 1.084295 -1.117500 -1.514942 
1 2.550163 -1.458016 -0.475888 
 
