%nprocshared=12
%chk=checkpoint.chk
%mem=12GB
# Opt=(TS, CalcFC, noeigentest, Z-matrix, MaxStep=10) Field=read NoSymm B3LYP/Def2TZVP
 
ts_zmat_initalOpt
 
0 1
 H
 C,1,R2
 C,2,R3,1,A3
 C,2,R4,1,A4,3,D4,0
 H,3,R5,2,A5,1,D5,0
 O,3,R6,2,A6,5,D6,0
 C,4,R7,2,A7,1,D7,0
 H,4,R8,2,A8,7,D8,0
 C,7,R9,4,A9,2,D9,0
 H,7,R10,4,A10,9,D10,0
 H,9,R11,7,A11,4,D11,0
 H,9,R12,7,A12,11,D12,0
      Variables:
 R2=1.08156519
 R3=1.41317811
 R4=1.39888274
 R5=1.09688771
 R6=1.25677048
 R7=1.38897396
 R8=1.08604499
 R9=1.39154798
 R10=1.08300587
 R11=1.08253896
 R12=1.08112526
 A3=116.39100818
 A4=119.66859241
 A5=115.63487628
 A6=128.0709295
 A7=120.88860272
 A8=118.16898304
 A9=117.32014816
 A10=120.74978445
 A11=120.84503568
 A12=118.50256483
 D4=154.83104467
 D5=12.05147398
 D6=171.43425531
 D7=-176.82554659
 D8=168.94191651
 D9=-21.18961525
 D10=169.69548039
 D11=163.18628083
 D12=152.61335417
 
0.0019776657603 0.00100887473933 0.00114935194822 0.0 0.0 0.0 0.0 0.0 0.0
0.0 0.0 0.0 0.0 0.0 0.0 0.0 0.0 0.0 0.0
0.0 0.0 0.0 0.0 0.0 0.0 0.0 0.0 0.0 0.0 0.0 0.0 0.0 0.0 0.0


