%nprocshared=12
%chk=checkpoint.chk
%mem=12GB
# sp B3LYP/Def2TZVP NoSymm
 
int_initalOptXYZ_aligned_AlignedSp
 
0 1
1 0.072656 -1.219414 -2.855803
6 0.085244 -1.430704 -0.716992
1 0.149675 -2.512032 -0.733116
6 0.041337 -0.693770 0.452035
6 0.046948 -0.787871 1.968469
1 -0.811019 -1.294473 2.414063
6 -0.046948 0.787871 1.968470
1 0.959004 -1.189003 2.414060
1 0.811019 1.294473 2.414064
1 -0.959003 1.189002 2.414062
6 -0.041337 0.693773 0.452035
6 -0.085245 1.430704 -0.716992
1 -0.149674 2.512032 -0.733116
6 -0.041545 0.697267 -1.907275
6 0.041544 -0.697269 -1.907275
1 -0.072657 1.219414 -2.855804
 
