%nprocshared=12
%chk=checkpoint.chk
%mem=12GB
# Opt=tight B3LYP/Def2TZVP freq=noraman pop=none
 
int_initalOpt
 
0 1
6 -1.454566 -1.061596 0.665929
6 0.240559 2.266385 1.176525
6 1.286568 1.538617 -0.728824
6 1.282897 1.539337 0.735360
1 2.018245 1.029258 -1.340006
1 2.011366 1.030435 1.350739
6 -0.513962 2.810052 -0.001861
1 -1.566433 2.500664 -0.004343
1 -0.528098 3.907250 -0.002463
1 -0.012393 2.455818 -2.206935
1 -0.023308 2.458174 2.206051
8 0.168121 -1.940113 -2.238494
8 0.184643 -1.936056 2.230648
6 -0.212748 -1.720840 -1.132753
6 -0.204341 -1.718702 1.127351
1 -2.196382 -0.679552 -1.350842
6 0.246422 2.265152 -1.175922
6 -1.459552 -1.062968 -0.663312
1 -2.186114 -0.676556 1.358164
8 0.511817 -2.092202 -0.005013
 
