%nprocshared=12
%chk=checkpoint.chk
%mem=12GB
# Opt B3LYP/Def2TZVP freq=noraman pop=none
 
int_initalOpt
 
0 1
6 -4.027982 -0.111806 0.932278 
6 -3.119580 -0.838389 0.292256 
1 -5.084643 -0.218762 0.724128 
1 -3.746140 0.616930 1.682876 
6 -1.652373 -0.726010 0.514780 
1 -3.438979 -1.549043 -0.464464 
16 -0.850121 0.210082 -0.886957 
1 -1.159945 -1.700022 0.544053 
1 -1.406836 -0.160374 1.414332 
8 -1.232334 1.636182 -0.709459 
6 0.851302 0.028429 -0.292781 
6 1.458082 1.107658 0.334596 
1 0.893078 2.020804 0.472254 
6 2.778773 0.993061 0.756017 
1 3.259962 1.829715 1.246804 
6 3.481615 -0.187912 0.543465 
1 4.510686 -0.271639 0.869026 
6 2.868415 -1.258932 -0.100776 
1 3.419162 -2.173948 -0.278468 
6 1.551005 -1.150984 -0.528577 
1 1.078715 -1.975127 -1.051104 
 
