%nprocshared=12
%chk=checkpoint.chk
%mem=12GB
# sp B3LYP/Def2TZVP NoSymm
 
ts_initalOpt_zmat_AlignedSp
 
0 1
 C
 C,1,R2
 C,1,R3,2,A3
 H,1,R4,2,A4,3,D4,0
 C,2,R5,1,A5,3,D5,0
 N,3,R6,1,A6,2,D6,0
 H,3,R7,1,A7,6,D7,0
 H,2,R8,1,A8,5,D8,0
 H,3,R9,1,A9,6,D9,0
 H,5,R10,2,A10,1,D10,0
      Variables:
 R2=1.3916285
 R3=1.40047886
 R4=1.0785173
 R5=1.39545501
 R6=1.45422796
 R7=1.07927834
 R8=1.07961986
 R9=1.2901583
 R10=1.07973011
 A3=106.63905898
 A4=127.31466348
 A5=107.55930729
 A6=109.24852016
 A7=129.66066285
 A8=126.41566418
 A9=115.1409749
 A10=127.98006366
 D4=179.74599453
 D5=0.83032723
 D6=1.40222515
 D7=161.08096268
 D8=178.21576941
 D9=-59.49723491
 D10=174.78041102
 
