%nprocshared=12
%chk=checkpoint.chk
%mem=12GB
# Opt=(TS, CalcFC, noeigentest) B3LYP/Def2TZVP freq=noraman pop=none
 
ts_initalOpt
 
0 1
6 -2.146803 0.286112 -0.146647 
6 -1.572729 1.569510 0.021022 
6 -1.503292 -0.930096 -0.149172 
8 -1.651876 -2.096509 -0.241518 
6 -0.248195 1.876260 0.182657 
6 0.682270 0.808678 0.207997 
6 0.395132 -0.518422 0.608381 
1 -0.196370 -0.703786 1.496801 
1 -3.165113 0.223792 -0.517520 
1 -2.266023 2.397674 -0.074004 
1 0.083411 2.905087 0.143806 
6 1.555541 -1.311352 0.276878 
1 1.686805 -2.363491 0.464853 
6 2.462660 -0.482819 -0.298308 
1 3.443712 -0.679898 -0.696295 
7 1.934734 0.804127 -0.324952 
1 2.337947 1.576579 -0.827683 
 
