%nprocshared=12
%chk=checkpoint.chk
%mem=12GB
# Opt=(TS, CalcFC, noeigentest, Z-matrix, MaxStep=10) Field=read NoSymm B3LYP/Def2TZVP freq=noraman pop=none
 
ts_zmat_initalOpt
 
0 1
 H
 C,1,R2
 C,2,R3,1,A3
 C,2,R4,1,A4,3,D4,0
 H,3,R5,2,A5,1,D5,0
 H,4,R6,2,A6,1,D6,0
 C,3,R7,2,A7,5,D7,0
 N,4,R8,2,A8,6,D8,0
 H,4,R9,2,A9,6,D9,0
 H,7,R10,3,A10,2,D10,0
      Variables:
 R2=1.0785173
 R3=1.3916285
 R4=1.40047886
 R5=1.07961986
 R6=1.2901583
 R7=1.39545501
 R8=1.45422796
 R9=1.07927834
 R10=1.07973011
 A3=127.31466348
 A4=126.04574691
 A5=126.41566418
 A6=115.1409749
 A7=107.55930729
 A8=109.24852016
 A9=129.66066285
 A10=127.98006366
 D4=179.69900347
 D5=-1.20790883
 D6=122.15483978
 D7=-178.21576941
 D8=59.49723491
 D9=-139.42180241
 D10=174.78041102
 
0.000329674896034 0.000857050723561 0.00232524805562 0.0 0.0 0.0 0.0 0.0 0.0
0.0 0.0 0.0 0.0 0.0 0.0 0.0 0.0 0.0 0.0
0.0 0.0 0.0 0.0 0.0 0.0 0.0 0.0 0.0 0.0 0.0 0.0 0.0 0.0 0.0


