%nprocshared=12
%chk=checkpoint.chk
%mem=12GB
# Opt=(Z-matrix, MaxStep=10) B3LYP/Def2TZVP Field=read NoSymm freq=noraman pop=none
 
int_zmat_initalOpt
 
0 1
 H
 C,1,R2
 C,2,R3,1,A3
 C,2,R4,1,A4,3,D4,0
 H,3,R5,2,A5,1,D5,0
 C,3,R6,2,A6,5,D6,0
 O,4,R7,2,A7,1,D7,0
 H,4,R8,2,A8,7,D8,0
 H,4,R9,2,A9,7,D9,0
 H,6,R10,3,A10,2,D10,0
 C,6,R11,3,A11,10,D11,0
 H,11,R12,6,A12,3,D12,0
      Variables:
 R2=1.08216452
 R3=1.33659615
 R4=1.50114754
 R5=1.08305164
 R6=1.45366072
 R7=1.44441743
 R8=1.08877293
 R9=1.10150995
 R10=1.07979245
 R11=1.34159979
 R12=1.0823795
 A3=122.73965562
 A4=119.21509305
 A5=121.32134865
 A6=119.24238206
 A7=111.8548236
 A8=112.50062942
 A9=111.10270891
 A10=121.67044399
 A11=118.04731067
 A12=124.43544722
 D4=-178.60003168
 D5=-0.30818719
 D6=175.86869317
 D7=-147.10272174
 D8=118.33048211
 D9=-120.23684365
 D10=172.24225973
 D11=172.50160839
 D12=-169.05383179
 
-0.000580606638619 -0.00162236292145 0.00181130739586 0.0 0.0 0.0 0.0 0.0 0.0
0.0 0.0 0.0 0.0 0.0 0.0 0.0 0.0 0.0 0.0
0.0 0.0 0.0 0.0 0.0 0.0 0.0 0.0 0.0 0.0 0.0 0.0 0.0 0.0 0.0


